results/x-long/X-n143-k7.vrp_seed-7.out
15726	1128
