results/x-long/X-n143-k7.vrp_seed-7.vrp.sol
Route #1: 68 84 127 13 130 126
Route #2: 78 17 2 41 86 8 43 114 110 53 102 6 31 98 79 60 72 111 1 107 5 93 116 136
Route #3: 109 9 50 49 51 88 52 20 66 101 46 67 58 135 59 40 70 124 115
Route #4: 117 108 92 134 38 103 10 113 63 112 26 75 94 3 76 129 105 138 34 121 30 87 48 4
Route #5: 54 65 61 64 44 74 11 100 81 47 96 62 104 132 23 21 33 125 123 55 139 95 57 73
Route #6: 128 118 12 89 45 90 18 133 28 83 56 91 35 85 120 97 19 7 32 16 36 25
Route #7: 71 99 24 106 27 15 141 140 69 131 42 29 39 80 119 22 77 122 37 14 82 137 142
Cost 15726.000000